NAME : LPS-n14-m204
COMMENT : (Lartu-Peter-Santi Plot, instance 4604 out of 39200. 14 customers.)
TYPE : CVRP
DIMENSION : 14
EDGE_WEIGHT_TYPE : EUC_2D
CAPACITY : 89
NODE_COORD_SECTION
 1 38 38
 2 42 41
 3 93 51
 4 51 90
 5 80 6
 6 80 31
 7 35 6
 8 54 21
 9 62 78
 10 5 49
 11 18 77
 12 63 33
 13 37 52
 14 72 90
DEMAND_SECTION
1 0
2 7
3 64
4 65
5 58
6 7
7 1
8 50
9 65
10 59
11 57
12 45
13 50
14 80
DEPOT_SECTION
 1
 -1
EOF
